File : Instances/p67
Use 142 s

25586

0 0 0 0 1 0 1 0 0 0 1 0 0 1 0 0 0 1 1 0 0 1 0 1 1 1 0 0 1 0 
18 6 21 24 21 6 21 28 24 28 4 28 13 13 28 18 13 10 18 24 18 24 23 24 10 18 24 17 4 21 6 4 4 21 28 6 10 13 24 21 18 13 6 4 13 4 13 21 28 17 24 24 24 21 13 6 18 4 18 25 4 17 18 13 13 25 23 17 28 25 18 6 6 10 23 23 10 23 10 24 23 17 4 25 4 13 6 23 24 25 28 6 25 25 23 13 28 6 17 28 28 21 25 18 4 24 4 24 18 13 17 4 18 6 6 13 28 25 17 13 10 25 17 6 4 21 21 25 4 17 28 24 25 10 23 10 13 13 28 10 6 18 28 25 25 23 24 21 18 25 24 17 23 17 13 28 21 21 13 13 13 28 10 24 23 18 23 4 13 21 23 10 28 10 4 17 24 10 4 10 23 21 24 6 25 13 28 23 17 21 21 21 6 4 25 6 25 21 10 6 
